c FILE /home/rafael/Documents/HappySet/MIHS/inputs/happygen/output/graph_scale_free_k7_p0.1_v100_20241127_083851.txt
c SOURCE This is a scale-free graph formed for the happy graph colouring problem.
c DESCRIPTION It was generated using the problem generator of Rhyd Lewis
c
c GRAPH STATS
c Seed                             = -297276846
c Number of Nodes                  = 100
c Number of colours k              = 7
c Number of pre-assignments        = 10
c Number of links per new node     = 5
c Density                          = 0.0979798
c 
c The degrees of nodes 1 to 100, respectively, are as follows 
c [33, 33, 32, 29, 26, 25, 24, 22, 21, 18, 17, 16, 15, 15, 15, 14, 14, 14, 13, 12, 12, 12, 11, 11, 11, 10, 
c  10, 10, 10, 10, 10, 10, 10, 10, 10, 10, 9, 9, 9, 9, 9, 8, 8, 8, 8, 8, 8, 7, 7, 7, 7, 
c  7, 7, 7, 7, 7, 6, 6, 6, 6, 6, 6, 6, 6, 6, 6, 6, 6, 6, 6, 6, 6, 6, 6, 6, 5, 
c  5, 5, 5, 5, 5, 5, 5, 5, 5, 5, 5, 5, 5, 5, 5, 5, 5, 5, 5, 5, 5, 5, 5, 5] 
c  
p edge 100 485 7
e 1 2
e 1 3
e 1 4
e 1 5
e 1 6
e 1 7
e 1 8
e 1 11
e 1 12
e 1 16
e 1 17
e 1 20
e 1 25
e 1 27
e 1 30
e 1 33
e 1 34
e 1 35
e 1 37
e 1 42
e 1 43
e 1 45
e 1 56
e 1 57
e 1 59
e 1 61
e 1 68
e 1 77
e 1 81
e 1 88
e 1 93
e 1 98
e 1 100
e 2 3
e 2 5
e 2 6
e 2 7
e 2 8
e 2 9
e 2 10
e 2 11
e 2 14
e 2 16
e 2 17
e 2 19
e 2 20
e 2 27
e 2 28
e 2 31
e 2 37
e 2 38
e 2 48
e 2 49
e 2 50
e 2 59
e 2 63
e 2 70
e 2 75
e 2 78
e 2 80
e 2 82
e 2 89
e 2 90
e 2 93
e 2 100
e 3 4
e 3 5
e 3 6
e 3 8
e 3 11
e 3 13
e 3 16
e 3 17
e 3 21
e 3 22
e 3 29
e 3 30
e 3 31
e 3 32
e 3 40
e 3 46
e 3 49
e 3 51
e 3 54
e 3 55
e 3 57
e 3 58
e 3 59
e 3 65
e 3 68
e 3 72
e 3 74
e 3 81
e 3 86
e 3 96
e 4 5
e 4 6
e 4 8
e 4 9
e 4 10
e 4 11
e 4 12
e 4 13
e 4 19
e 4 20
e 4 23
e 4 26
e 4 27
e 4 28
e 4 29
e 4 35
e 4 36
e 4 42
e 4 45
e 4 46
e 4 51
e 4 52
e 4 54
e 4 57
e 4 59
e 4 60
e 4 92
e 5 6
e 5 8
e 5 9
e 5 12
e 5 13
e 5 14
e 5 16
e 5 17
e 5 19
e 5 24
e 5 29
e 5 31
e 5 32
e 5 40
e 5 47
e 5 60
e 5 71
e 5 76
e 5 77
e 5 85
e 5 87
e 5 89
e 6 7
e 6 8
e 6 12
e 6 16
e 6 18
e 6 19
e 6 22
e 6 25
e 6 28
e 6 32
e 6 35
e 6 36
e 6 42
e 6 47
e 6 49
e 6 50
e 6 53
e 6 58
e 6 66
e 6 71
e 7 8
e 7 9
e 7 10
e 7 12
e 7 14
e 7 17
e 7 18
e 7 20
e 7 21
e 7 23
e 7 26
e 7 34
e 7 42
e 7 44
e 7 53
e 7 57
e 7 58
e 7 59
e 7 61
e 7 72
e 7 80
e 8 10
e 8 13
e 8 15
e 8 20
e 8 27
e 8 33
e 8 48
e 8 57
e 8 58
e 8 62
e 8 66
e 8 67
e 8 68
e 8 72
e 8 100
e 9 11
e 9 15
e 9 18
e 9 21
e 9 22
e 9 23
e 9 24
e 9 25
e 9 28
e 9 52
e 9 56
e 9 58
e 9 60
e 9 67
e 9 78
e 9 91
e 9 96
e 10 11
e 10 20
e 10 25
e 10 29
e 10 36
e 10 37
e 10 45
e 10 60
e 10 73
e 10 78
e 10 79
e 10 80
e 10 83
e 10 94
e 11 18
e 11 23
e 11 26
e 11 30
e 11 36
e 11 37
e 11 40
e 11 45
e 11 49
e 11 76
e 11 100
e 12 13
e 12 16
e 12 23
e 12 36
e 12 37
e 12 39
e 12 63
e 12 73
e 12 74
e 12 76
e 12 90
e 13 21
e 13 24
e 13 39
e 13 41
e 13 43
e 13 50
e 13 65
e 13 77
e 13 87
e 13 89
e 14 17
e 14 21
e 14 30
e 14 50
e 14 63
e 14 64
e 14 70
e 14 76
e 14 81
e 14 82
e 14 84
e 14 87
e 15 20
e 15 28
e 15 29
e 15 39
e 15 45
e 15 47
e 15 53
e 15 55
e 15 66
e 15 69
e 15 71
e 15 93
e 15 96
e 16 18
e 16 19
e 16 26
e 16 28
e 16 43
e 16 47
e 16 61
e 16 89
e 17 26
e 17 39
e 17 47
e 17 53
e 17 61
e 17 65
e 17 75
e 17 98
e 18 31
e 18 39
e 18 62
e 18 67
e 18 69
e 18 84
e 18 90
e 18 91
e 18 99
e 19 24
e 19 25
e 19 38
e 19 43
e 19 55
e 19 68
e 19 86
e 19 88
e 20 27
e 20 29
e 20 44
e 20 82
e 20 100
e 21 26
e 21 31
e 21 33
e 21 62
e 21 75
e 21 88
e 21 99
e 22 28
e 22 34
e 22 37
e 22 46
e 22 62
e 22 79
e 22 87
e 22 95
e 22 97
e 23 34
e 23 42
e 23 43
e 23 46
e 23 66
e 23 88
e 24 26
e 24 41
e 24 44
e 24 48
e 24 66
e 24 70
e 24 93
e 25 32
e 25 38
e 25 50
e 25 68
e 25 74
e 25 90
e 26 40
e 26 51
e 26 83
e 27 34
e 27 75
e 27 76
e 27 85
e 27 95
e 28 38
e 28 83
e 28 91
e 29 52
e 29 54
e 29 84
e 29 92
e 30 57
e 30 64
e 30 69
e 30 73
e 30 78
e 30 89
e 31 33
e 31 65
e 31 80
e 31 81
e 31 84
e 32 39
e 32 60
e 32 64
e 32 71
e 32 79
e 32 88
e 33 43
e 33 63
e 33 64
e 33 79
e 33 84
e 33 86
e 34 40
e 34 69
e 34 77
e 34 80
e 34 99
e 35 38
e 35 44
e 35 48
e 35 63
e 35 85
e 35 93
e 35 97
e 36 69
e 36 75
e 36 86
e 36 91
e 36 94
e 37 52
e 37 94
e 37 95
e 38 42
e 38 44
e 38 65
e 38 77
e 39 56
e 39 86
e 39 92
e 40 48
e 40 51
e 40 53
e 40 73
e 41 44
e 41 45
e 41 46
e 41 48
e 41 61
e 41 67
e 41 94
e 42 44
e 42 82
e 43 67
e 43 83
e 44 95
e 45 96
e 45 97
e 46 92
e 46 94
e 46 99
e 47 73
e 47 74
e 47 97
e 48 51
e 49 56
e 49 59
e 49 64
e 50 54
e 50 98
e 51 70
e 51 78
e 52 55
e 52 63
e 52 72
e 53 70
e 53 90
e 54 55
e 54 62
e 54 97
e 55 74
e 55 92
e 56 73
e 56 96
e 56 98
e 58 62
e 60 72
e 61 79
e 64 87
e 65 91
e 66 85
e 67 81
e 68 99
e 69 71
e 70 82
e 71 83
e 72 85
e 74 98
e 75 95
n 5 7
n 15 2
n 31 7
n 41 5
n 51 3
n 62 1
n 74 4
n 84 7
n 91 6
n 99 4
